NAME = SAfile180,
TOURSIZE = 180,
LENGTH = 1960,
13,80,121,179,166,100,65,112,81,48,94,26,101,126,127,146,143,24,44,118,89,168,14,60,85,82,72,62,137,83,41,155,128,77,70,23,37,36,66,64,171,116,172,45,12,16,29,152,139,43,52,135,158,54,28,73,33,125,58,180,176,103,96,170,164,53,31,141,27,114,111,110,105,69,67,131,76,147,40,46,138,42,21,8,93,79,162,61,15,35,107,149,150,132,6,22,175,173,174,129,154,87,86,56,157,108,144,133,25,88,102,109,30,51,47,178,7,120,115,165,160,92,95,163,74,78,159,153,123,124,55,169,177,104,145,130,84,71,119,99,49,117,151,161,59,148,9,5,140,142,98,91,1,11,63,38,50,4,32,113,57,2,18,136,90,167,75,39,3,34,10,97,156,106,19,17,68,20,122,134